gurobi_demo/build/gurobi.txt

Gurobi 11.0.0 (linux64) logging started Mon Apr  1 14:10:06 2024

Set parameter LogFile to value "./gurobi.txt"
Set parameter OutputFlag to value 1

Gurobi 11.0.0 (linux64) logging started Mon Apr  1 14:13:17 2024

Set parameter LogFile to value "./gurobi.txt"
Set parameter OutputFlag to value 1

Gurobi 11.0.0 (linux64) logging started Mon Apr  1 14:13:50 2024

Set parameter LogFile to value "./gurobi.txt"
Set parameter OutputFlag to value 1
Gurobi Optimizer version 11.0.0 build v11.0.0rc2 (linux64 - "Ubuntu 22.04.3 LTS")

CPU model: Intel(R) Core(TM) i7-10700 CPU @ 2.90GHz, instruction set [SSE2|AVX|AVX2]
Thread count: 8 physical cores, 16 logical processors, using up to 16 threads

Optimize a model with 3 rows, 5 columns and 7 nonzeros
Model fingerprint: 0xdab73d2e
Variable types: 0 continuous, 5 integer (0 binary)
Coefficient statistics:
  Matrix range     [1e+00, 3e+00]
  Objective range  [1e+00, 1e+00]
  Bounds range     [1e+01, 1e+01]
  RHS range        [4e+00, 1e+01]

User MIP start did not produce a new incumbent solution

Presolve removed 3 rows and 5 columns
Presolve time: 0.00s
Presolve: All rows and columns removed

Explored 0 nodes (0 simplex iterations) in 0.00 seconds (0.00 work units)
Thread count was 1 (of 16 available processors)

Solution count 1: 2 

Optimal solution found (tolerance 1.00e-04)
Best objective 2.000000000000e+00, best bound 2.000000000000e+00, gap 0.0000%

Gurobi 11.0.0 (linux64) logging started Mon Apr  1 14:18:38 2024

Set parameter LogFile to value "./gurobi.txt"
Set parameter OutputFlag to value 1
Gurobi Optimizer version 11.0.0 build v11.0.0rc2 (linux64 - "Ubuntu 22.04.3 LTS")

CPU model: Intel(R) Core(TM) i7-10700 CPU @ 2.90GHz, instruction set [SSE2|AVX|AVX2]
Thread count: 8 physical cores, 16 logical processors, using up to 16 threads

Optimize a model with 3 rows, 5 columns and 7 nonzeros
Model fingerprint: 0xdab73d2e
Variable types: 0 continuous, 5 integer (0 binary)
Coefficient statistics:
  Matrix range     [1e+00, 3e+00]
  Objective range  [1e+00, 1e+00]
  Bounds range     [1e+01, 1e+01]
  RHS range        [4e+00, 1e+01]

User MIP start did not produce a new incumbent solution

Presolve removed 3 rows and 5 columns
Presolve time: 0.00s
Presolve: All rows and columns removed

Explored 0 nodes (0 simplex iterations) in 0.00 seconds (0.00 work units)
Thread count was 1 (of 16 available processors)

Solution count 1: 2 

Optimal solution found (tolerance 1.00e-04)
Best objective 2.000000000000e+00, best bound 2.000000000000e+00, gap 0.0000%

Gurobi 11.0.0 (linux64) logging started Mon Apr  1 14:46:27 2024

Set parameter LogFile to value "./gurobi.txt"
Set parameter OutputFlag to value 1
Gurobi Optimizer version 11.0.0 build v11.0.0rc2 (linux64 - "Ubuntu 22.04.3 LTS")

CPU model: Intel(R) Core(TM) i7-10700 CPU @ 2.90GHz, instruction set [SSE2|AVX|AVX2]
Thread count: 8 physical cores, 16 logical processors, using up to 16 threads

Optimize a model with 3 rows, 5 columns and 7 nonzeros
Model fingerprint: 0xdab73d2e
Variable types: 0 continuous, 5 integer (0 binary)
Coefficient statistics:
  Matrix range     [1e+00, 3e+00]
  Objective range  [1e+00, 1e+00]
  Bounds range     [1e+01, 1e+01]
  RHS range        [4e+00, 1e+01]

User MIP start did not produce a new incumbent solution

Presolve removed 3 rows and 5 columns
Presolve time: 0.00s
Presolve: All rows and columns removed

Explored 0 nodes (0 simplex iterations) in 0.00 seconds (0.00 work units)
Thread count was 1 (of 16 available processors)

Solution count 1: 2 

Optimal solution found (tolerance 1.00e-04)
Best objective 2.000000000000e+00, best bound 2.000000000000e+00, gap 0.0000%

Gurobi 11.0.0 (linux64) logging started Mon Apr  1 15:12:46 2024

Set parameter LogFile to value "./gurobi.txt"
Set parameter OutputFlag to value 1
Gurobi Optimizer version 11.0.0 build v11.0.0rc2 (linux64 - "Ubuntu 22.04.3 LTS")

CPU model: Intel(R) Core(TM) i7-10700 CPU @ 2.90GHz, instruction set [SSE2|AVX|AVX2]
Thread count: 8 physical cores, 16 logical processors, using up to 16 threads

Optimize a model with 3 rows, 5 columns and 7 nonzeros
Model fingerprint: 0xdab73d2e
Variable types: 0 continuous, 5 integer (0 binary)
Coefficient statistics:
  Matrix range     [1e+00, 3e+00]
  Objective range  [1e+00, 1e+00]
  Bounds range     [1e+01, 1e+01]
  RHS range        [4e+00, 1e+01]

User MIP start did not produce a new incumbent solution

Presolve removed 3 rows and 5 columns
Presolve time: 0.00s
Presolve: All rows and columns removed

Explored 0 nodes (0 simplex iterations) in 0.00 seconds (0.00 work units)
Thread count was 1 (of 16 available processors)

Solution count 1: 2 

Optimal solution found (tolerance 1.00e-04)
Best objective 2.000000000000e+00, best bound 2.000000000000e+00, gap 0.0000%

Gurobi 11.0.0 (linux64) logging started Mon Apr  1 15:17:47 2024

Set parameter LogFile to value "./gurobi.txt"
Set parameter OutputFlag to value 1
Gurobi Optimizer version 11.0.0 build v11.0.0rc2 (linux64 - "Ubuntu 22.04.3 LTS")

CPU model: Intel(R) Core(TM) i7-10700 CPU @ 2.90GHz, instruction set [SSE2|AVX|AVX2]
Thread count: 8 physical cores, 16 logical processors, using up to 16 threads

Optimize a model with 3 rows, 5 columns and 7 nonzeros
Model fingerprint: 0xdab73d2e
Variable types: 0 continuous, 5 integer (0 binary)
Coefficient statistics:
  Matrix range     [1e+00, 3e+00]
  Objective range  [1e+00, 1e+00]
  Bounds range     [1e+01, 1e+01]
  RHS range        [4e+00, 1e+01]

User MIP start did not produce a new incumbent solution

Presolve removed 3 rows and 5 columns
Presolve time: 0.00s
Presolve: All rows and columns removed

Explored 0 nodes (0 simplex iterations) in 0.00 seconds (0.00 work units)
Thread count was 1 (of 16 available processors)

Solution count 1: 2 

Optimal solution found (tolerance 1.00e-04)
Best objective 2.000000000000e+00, best bound 2.000000000000e+00, gap 0.0000%

Gurobi 11.0.0 (linux64) logging started Mon Apr  1 15:17:59 2024

Set parameter LogFile to value "./gurobi.txt"
Set parameter OutputFlag to value 1
Gurobi Optimizer version 11.0.0 build v11.0.0rc2 (linux64 - "Ubuntu 22.04.3 LTS")

CPU model: Intel(R) Core(TM) i7-10700 CPU @ 2.90GHz, instruction set [SSE2|AVX|AVX2]
Thread count: 8 physical cores, 16 logical processors, using up to 16 threads

Optimize a model with 3 rows, 5 columns and 7 nonzeros
Model fingerprint: 0xdab73d2e
Variable types: 0 continuous, 5 integer (0 binary)
Coefficient statistics:
  Matrix range     [1e+00, 3e+00]
  Objective range  [1e+00, 1e+00]
  Bounds range     [1e+01, 1e+01]
  RHS range        [4e+00, 1e+01]

User MIP start did not produce a new incumbent solution

Presolve removed 3 rows and 5 columns
Presolve time: 0.00s
Presolve: All rows and columns removed

Explored 0 nodes (0 simplex iterations) in 0.00 seconds (0.00 work units)
Thread count was 1 (of 16 available processors)

Solution count 1: 2 

Optimal solution found (tolerance 1.00e-04)
Best objective 2.000000000000e+00, best bound 2.000000000000e+00, gap 0.0000%

Gurobi 11.0.0 (linux64) logging started Mon Apr  1 15:18:17 2024

Set parameter LogFile to value "./gurobi.txt"
Set parameter OutputFlag to value 1
Gurobi Optimizer version 11.0.0 build v11.0.0rc2 (linux64 - "Ubuntu 22.04.3 LTS")

CPU model: Intel(R) Core(TM) i7-10700 CPU @ 2.90GHz, instruction set [SSE2|AVX|AVX2]
Thread count: 8 physical cores, 16 logical processors, using up to 16 threads

Optimize a model with 3 rows, 5 columns and 7 nonzeros
Model fingerprint: 0xdab73d2e
Variable types: 0 continuous, 5 integer (0 binary)
Coefficient statistics:
  Matrix range     [1e+00, 3e+00]
  Objective range  [1e+00, 1e+00]
  Bounds range     [1e+01, 1e+01]
  RHS range        [4e+00, 1e+01]

User MIP start did not produce a new incumbent solution

Presolve removed 3 rows and 5 columns
Presolve time: 0.00s
Presolve: All rows and columns removed

Explored 0 nodes (0 simplex iterations) in 0.00 seconds (0.00 work units)
Thread count was 1 (of 16 available processors)

Solution count 1: 2 

Optimal solution found (tolerance 1.00e-04)
Best objective 2.000000000000e+00, best bound 2.000000000000e+00, gap 0.0000%

Gurobi 11.0.0 (linux64) logging started Mon Apr  1 15:21:24 2024

Set parameter LogFile to value "./gurobi.txt"
Set parameter OutputFlag to value 1
Gurobi Optimizer version 11.0.0 build v11.0.0rc2 (linux64 - "Ubuntu 22.04.3 LTS")

CPU model: Intel(R) Core(TM) i7-10700 CPU @ 2.90GHz, instruction set [SSE2|AVX|AVX2]
Thread count: 8 physical cores, 16 logical processors, using up to 16 threads

Optimize a model with 3 rows, 5 columns and 7 nonzeros
Model fingerprint: 0xdab73d2e
Variable types: 0 continuous, 5 integer (0 binary)
Coefficient statistics:
  Matrix range     [1e+00, 3e+00]
  Objective range  [1e+00, 1e+00]
  Bounds range     [1e+01, 1e+01]
  RHS range        [4e+00, 1e+01]

User MIP start did not produce a new incumbent solution

Presolve removed 3 rows and 5 columns
Presolve time: 0.00s
Presolve: All rows and columns removed

Explored 0 nodes (0 simplex iterations) in 0.00 seconds (0.00 work units)
Thread count was 1 (of 16 available processors)

Solution count 1: 2 

Optimal solution found (tolerance 1.00e-04)
Best objective 2.000000000000e+00, best bound 2.000000000000e+00, gap 0.0000%

Gurobi 11.0.0 (linux64) logging started Mon Apr  1 15:38:14 2024

Set parameter LogFile to value "./gurobi.txt"
Set parameter OutputFlag to value 1
Gurobi Optimizer version 11.0.0 build v11.0.0rc2 (linux64 - "Ubuntu 22.04.3 LTS")

CPU model: Intel(R) Core(TM) i7-10700 CPU @ 2.90GHz, instruction set [SSE2|AVX|AVX2]
Thread count: 8 physical cores, 16 logical processors, using up to 16 threads

Optimize a model with 4 rows, 6 columns and 11 nonzeros
Model fingerprint: 0x0a99e1f3
Variable types: 1 continuous, 5 integer (0 binary)
Coefficient statistics:
  Matrix range     [1e+00, 1e+01]
  Objective range  [1e+00, 1e+00]
  Bounds range     [4e+00, 1e+01]
  RHS range        [4e+00, 1e+01]

User MIP start did not produce a new incumbent solution

Presolve removed 4 rows and 6 columns
Presolve time: 0.00s
Presolve: All rows and columns removed

Explored 0 nodes (0 simplex iterations) in 0.00 seconds (0.00 work units)
Thread count was 1 (of 16 available processors)

Solution count 1: 2 

Optimal solution found (tolerance 1.00e-04)
Best objective 2.000000000000e+00, best bound 2.000000000000e+00, gap 0.0000%

Gurobi 11.0.0 (linux64) logging started Mon Apr  1 16:04:23 2024

Set parameter LogFile to value "./gurobi.txt"
Set parameter OutputFlag to value 1
Gurobi Optimizer version 11.0.0 build v11.0.0rc2 (linux64 - "Ubuntu 22.04.3 LTS")

CPU model: Intel(R) Core(TM) i7-10700 CPU @ 2.90GHz, instruction set [SSE2|AVX|AVX2]
Thread count: 8 physical cores, 16 logical processors, using up to 16 threads

Optimize a model with 4 rows, 6 columns and 11 nonzeros
Model fingerprint: 0x0a99e1f3
Variable types: 1 continuous, 5 integer (0 binary)
Coefficient statistics:
  Matrix range     [1e+00, 1e+01]
  Objective range  [1e+00, 1e+00]
  Bounds range     [4e+00, 1e+01]
  RHS range        [4e+00, 1e+01]

User MIP start did not produce a new incumbent solution

Presolve removed 4 rows and 6 columns
Presolve time: 0.00s
Presolve: All rows and columns removed

Explored 0 nodes (0 simplex iterations) in 0.00 seconds (0.00 work units)
Thread count was 1 (of 16 available processors)

Solution count 1: 2 

Optimal solution found (tolerance 1.00e-04)
Best objective 2.000000000000e+00, best bound 2.000000000000e+00, gap 0.0000%

Gurobi 11.0.0 (linux64) logging started Mon Apr  1 16:05:18 2024

Set parameter LogFile to value "./gurobi.txt"
Set parameter OutputFlag to value 1
Gurobi Optimizer version 11.0.0 build v11.0.0rc2 (linux64 - "Ubuntu 22.04.3 LTS")

CPU model: Intel(R) Core(TM) i7-10700 CPU @ 2.90GHz, instruction set [SSE2|AVX|AVX2]
Thread count: 8 physical cores, 16 logical processors, using up to 16 threads

Optimize a model with 4 rows, 6 columns and 11 nonzeros
Model fingerprint: 0x0a99e1f3
Variable types: 1 continuous, 5 integer (0 binary)
Coefficient statistics:
  Matrix range     [1e+00, 1e+01]
  Objective range  [1e+00, 1e+00]
  Bounds range     [4e+00, 1e+01]
  RHS range        [4e+00, 1e+01]

User MIP start did not produce a new incumbent solution

Presolve removed 4 rows and 6 columns
Presolve time: 0.00s
Presolve: All rows and columns removed

Explored 0 nodes (0 simplex iterations) in 0.00 seconds (0.00 work units)
Thread count was 1 (of 16 available processors)

Solution count 1: 2 

Optimal solution found (tolerance 1.00e-04)
Best objective 2.000000000000e+00, best bound 2.000000000000e+00, gap 0.0000%
