gurobi_py_demo/gurobi.log

Gurobi 11.0.0 (linux64) logging started Sat Apr  6 20:52:16 2024

Set parameter LogFile to value "gurobi.log"
Set parameter Method to value 2
Gurobi Optimizer version 11.0.0 build v11.0.0rc2 (linux64 - "Ubuntu 22.04.3 LTS")

CPU model: Intel(R) Core(TM) i7-10700 CPU @ 2.90GHz, instruction set [SSE2|AVX|AVX2]
Thread count: 8 physical cores, 16 logical processors, using up to 1 threads

Optimize a model with 3 rows, 9 columns and 5 nonzeros
Model fingerprint: 0x303512cc
Coefficient statistics:
  Matrix range     [1e+00, 2e+00]
  Objective range  [0e+00, 0e+00]
  Bounds range     [0e+00, 0e+00]
  RHS range        [3e+00, 3e+00]
Presolve removed 3 rows and 9 columns
Presolve time: 0.00s
Presolve: All rows and columns removed
Iteration    Objective       Primal Inf.    Dual Inf.      Time
       0    0.0000000e+00   0.000000e+00   0.000000e+00      0s

Solved in 0 iterations and 0.00 seconds (0.00 work units)
Optimal objective  0.000000000e+00

Gurobi 11.0.0 (linux64) logging started Sat Apr  6 20:56:07 2024

Set parameter LogFile to value "gurobi.log"
Set parameter Method to value 2
Gurobi Optimizer version 11.0.0 build v11.0.0rc2 (linux64 - "Ubuntu 22.04.3 LTS")

CPU model: Intel(R) Core(TM) i7-10700 CPU @ 2.90GHz, instruction set [SSE2|AVX|AVX2]
Thread count: 8 physical cores, 16 logical processors, using up to 1 threads

Optimize a model with 3 rows, 9 columns and 5 nonzeros
Model fingerprint: 0x303512cc
Coefficient statistics:
  Matrix range     [1e+00, 2e+00]
  Objective range  [0e+00, 0e+00]
  Bounds range     [0e+00, 0e+00]
  RHS range        [3e+00, 3e+00]
Presolve removed 3 rows and 9 columns
Presolve time: 0.00s
Presolve: All rows and columns removed
Iteration    Objective       Primal Inf.    Dual Inf.      Time
       0    0.0000000e+00   0.000000e+00   0.000000e+00      0s

Solved in 0 iterations and 0.00 seconds (0.00 work units)
Optimal objective  0.000000000e+00

Gurobi 11.0.0 (linux64) logging started Sat Apr  6 20:56:37 2024

Set parameter LogFile to value "gurobi.log"
Set parameter Method to value 2
Gurobi Optimizer version 11.0.0 build v11.0.0rc2 (linux64 - "Ubuntu 22.04.3 LTS")

CPU model: Intel(R) Core(TM) i7-10700 CPU @ 2.90GHz, instruction set [SSE2|AVX|AVX2]
Thread count: 8 physical cores, 16 logical processors, using up to 1 threads

Optimize a model with 3 rows, 9 columns and 5 nonzeros
Model fingerprint: 0x39c443c4
Coefficient statistics:
  Matrix range     [1e+00, 2e+00]
  Objective range  [1e+00, 8e+00]
  Bounds range     [0e+00, 0e+00]
  RHS range        [3e+00, 3e+00]
Presolve removed 3 rows and 9 columns
Presolve time: 0.00s
Presolve: All rows and columns removed
Iteration    Objective       Primal Inf.    Dual Inf.      Time
       0    0.0000000e+00   0.000000e+00   0.000000e+00      0s

Solved in 0 iterations and 0.00 seconds (0.00 work units)
Optimal objective  0.000000000e+00

Gurobi 11.0.0 (linux64) logging started Sat Apr  6 20:57:09 2024

Set parameter LogFile to value "gurobi.log"
Set parameter Method to value 2
Gurobi Optimizer version 11.0.0 build v11.0.0rc2 (linux64 - "Ubuntu 22.04.3 LTS")

CPU model: Intel(R) Core(TM) i7-10700 CPU @ 2.90GHz, instruction set [SSE2|AVX|AVX2]
Thread count: 8 physical cores, 16 logical processors, using up to 1 threads

Optimize a model with 2 rows, 9 columns and 4 nonzeros
Model fingerprint: 0x1cbbbd70
Coefficient statistics:
  Matrix range     [1e+00, 1e+00]
  Objective range  [1e+00, 8e+00]
  Bounds range     [0e+00, 0e+00]
  RHS range        [3e+00, 3e+00]
Presolve removed 2 rows and 9 columns
Presolve time: 0.00s
Presolve: All rows and columns removed
Iteration    Objective       Primal Inf.    Dual Inf.      Time
       0    0.0000000e+00   0.000000e+00   0.000000e+00      0s

Solved in 0 iterations and 0.00 seconds (0.00 work units)
Optimal objective  0.000000000e+00

Gurobi 11.0.0 (linux64) logging started Sat Apr  6 20:57:15 2024

Set parameter LogFile to value "gurobi.log"
Set parameter Method to value 2
Gurobi Optimizer version 11.0.0 build v11.0.0rc2 (linux64 - "Ubuntu 22.04.3 LTS")

CPU model: Intel(R) Core(TM) i7-10700 CPU @ 2.90GHz, instruction set [SSE2|AVX|AVX2]
Thread count: 8 physical cores, 16 logical processors, using up to 1 threads

Optimize a model with 2 rows, 9 columns and 4 nonzeros
Model fingerprint: 0x14692841
Coefficient statistics:
  Matrix range     [1e+00, 2e+00]
  Objective range  [1e+00, 8e+00]
  Bounds range     [0e+00, 0e+00]
  RHS range        [3e+00, 3e+00]
Presolve removed 2 rows and 9 columns
Presolve time: 0.00s
Presolve: All rows and columns removed
Iteration    Objective       Primal Inf.    Dual Inf.      Time
       0    0.0000000e+00   0.000000e+00   0.000000e+00      0s

Solved in 0 iterations and 0.00 seconds (0.00 work units)
Optimal objective  0.000000000e+00

Gurobi 11.0.0 (linux64) logging started Sat Apr  6 21:00:32 2024

Set parameter LogFile to value "gurobi.log"
Set parameter Method to value 2
Gurobi Optimizer version 11.0.0 build v11.0.0rc2 (linux64 - "Ubuntu 22.04.3 LTS")

CPU model: Intel(R) Core(TM) i7-10700 CPU @ 2.90GHz, instruction set [SSE2|AVX|AVX2]
Thread count: 8 physical cores, 16 logical processors, using up to 1 threads

Optimize a model with 2 rows, 9 columns and 4 nonzeros
Model fingerprint: 0x14692841
Coefficient statistics:
  Matrix range     [1e+00, 2e+00]
  Objective range  [1e+00, 8e+00]
  Bounds range     [0e+00, 0e+00]
  RHS range        [3e+00, 3e+00]
Presolve removed 2 rows and 9 columns
Presolve time: 0.00s
Presolve: All rows and columns removed
Iteration    Objective       Primal Inf.    Dual Inf.      Time
       0    0.0000000e+00   0.000000e+00   0.000000e+00      0s

Solved in 0 iterations and 0.00 seconds (0.00 work units)
Optimal objective  0.000000000e+00

Gurobi 11.0.0 (linux64) logging started Sat Apr  6 21:03:08 2024

Set parameter LogFile to value "gurobi.log"
Set parameter Method to value 2
Gurobi Optimizer version 11.0.0 build v11.0.0rc2 (linux64 - "Ubuntu 22.04.3 LTS")

CPU model: Intel(R) Core(TM) i7-10700 CPU @ 2.90GHz, instruction set [SSE2|AVX|AVX2]
Thread count: 8 physical cores, 16 logical processors, using up to 1 threads

Optimize a model with 2 rows, 9 columns and 4 nonzeros
Model fingerprint: 0xe25af32e
Coefficient statistics:
  Matrix range     [1e+00, 2e+00]
  Objective range  [1e+00, 8e+00]
  Bounds range     [0e+00, 0e+00]
  RHS range        [3e+00, 3e+00]
Presolve removed 2 rows and 9 columns
Presolve time: 0.00s
Presolve: All rows and columns removed
Iteration    Objective       Primal Inf.    Dual Inf.      Time
       0    0.0000000e+00   0.000000e+00   0.000000e+00      0s

Solved in 0 iterations and 0.00 seconds (0.00 work units)
Optimal objective  0.000000000e+00

Gurobi 11.0.0 (linux64) logging started Sat Apr  6 21:05:36 2024

Set parameter LogFile to value "gurobi.log"
Set parameter Method to value 2
Gurobi Optimizer version 11.0.0 build v11.0.0rc2 (linux64 - "Ubuntu 22.04.3 LTS")

CPU model: Intel(R) Core(TM) i7-10700 CPU @ 2.90GHz, instruction set [SSE2|AVX|AVX2]
Thread count: 8 physical cores, 16 logical processors, using up to 1 threads

Optimize a model with 2 rows, 9 columns and 4 nonzeros
Model fingerprint: 0xe25af32e
Coefficient statistics:
  Matrix range     [1e+00, 2e+00]
  Objective range  [1e+00, 8e+00]
  Bounds range     [0e+00, 0e+00]
  RHS range        [3e+00, 3e+00]
Presolve removed 2 rows and 9 columns
Presolve time: 0.00s
Presolve: All rows and columns removed
Iteration    Objective       Primal Inf.    Dual Inf.      Time
       0    0.0000000e+00   0.000000e+00   0.000000e+00      0s

Solved in 0 iterations and 0.00 seconds (0.00 work units)
Optimal objective  0.000000000e+00

Gurobi 11.0.0 (linux64) logging started Sat Apr  6 21:07:57 2024

Set parameter LogFile to value "gurobi.log"
Set parameter Method to value 2
Gurobi Optimizer version 11.0.0 build v11.0.0rc2 (linux64 - "Ubuntu 22.04.3 LTS")

CPU model: Intel(R) Core(TM) i7-10700 CPU @ 2.90GHz, instruction set [SSE2|AVX|AVX2]
Thread count: 8 physical cores, 16 logical processors, using up to 1 threads

Optimize a model with 2 rows, 9 columns and 4 nonzeros
Model fingerprint: 0xe25af32e
Coefficient statistics:
  Matrix range     [1e+00, 2e+00]
  Objective range  [1e+00, 8e+00]
  Bounds range     [0e+00, 0e+00]
  RHS range        [3e+00, 3e+00]
Presolve removed 2 rows and 9 columns
Presolve time: 0.00s
Presolve: All rows and columns removed
Iteration    Objective       Primal Inf.    Dual Inf.      Time
       0    0.0000000e+00   0.000000e+00   0.000000e+00      0s

Solved in 0 iterations and 0.00 seconds (0.00 work units)
Optimal objective  0.000000000e+00

Gurobi 11.0.0 (linux64) logging started Sat Apr  6 21:10:30 2024

Set parameter LogFile to value "gurobi.log"
Set parameter Method to value 2
Gurobi Optimizer version 11.0.0 build v11.0.0rc2 (linux64 - "Ubuntu 22.04.3 LTS")

CPU model: Intel(R) Core(TM) i7-10700 CPU @ 2.90GHz, instruction set [SSE2|AVX|AVX2]
Thread count: 8 physical cores, 16 logical processors, using up to 1 threads

Optimize a model with 2 rows, 9 columns and 4 nonzeros
Model fingerprint: 0xe25af32e
Coefficient statistics:
  Matrix range     [1e+00, 2e+00]
  Objective range  [1e+00, 8e+00]
  Bounds range     [0e+00, 0e+00]
  RHS range        [3e+00, 3e+00]
Presolve removed 2 rows and 9 columns
Presolve time: 0.00s
Presolve: All rows and columns removed
Iteration    Objective       Primal Inf.    Dual Inf.      Time
       0    0.0000000e+00   0.000000e+00   0.000000e+00      0s

Solved in 0 iterations and 0.00 seconds (0.00 work units)
Optimal objective  0.000000000e+00

Gurobi 11.0.0 (linux64) logging started Sat Apr  6 21:12:32 2024

Set parameter LogFile to value "gurobi.log"
Set parameter Method to value 2
Gurobi Optimizer version 11.0.0 build v11.0.0rc2 (linux64 - "Ubuntu 22.04.3 LTS")

CPU model: Intel(R) Core(TM) i7-10700 CPU @ 2.90GHz, instruction set [SSE2|AVX|AVX2]
Thread count: 8 physical cores, 16 logical processors, using up to 1 threads

Optimize a model with 2 rows, 9 columns and 4 nonzeros
Model fingerprint: 0x0558f0c3
Coefficient statistics:
  Matrix range     [1e+00, 2e+00]
  Objective range  [1e+00, 8e+00]
  Bounds range     [0e+00, 0e+00]
  RHS range        [3e+00, 3e+00]
Presolve removed 2 rows and 9 columns
Presolve time: 0.00s
Presolve: All rows and columns removed
Iteration    Objective       Primal Inf.    Dual Inf.      Time
       0    1.0000000e+00   0.000000e+00   0.000000e+00      0s

Solved in 0 iterations and 0.00 seconds (0.00 work units)
Optimal objective  1.000000000e+00

Gurobi 11.0.0 (linux64) logging started Sat Apr  6 21:20:38 2024

Set parameter LogFile to value "gurobi.log"
Set parameter Method to value 0
Gurobi Optimizer version 11.0.0 build v11.0.0rc2 (linux64 - "Ubuntu 22.04.3 LTS")

CPU model: Intel(R) Core(TM) i7-10700 CPU @ 2.90GHz, instruction set [SSE2|AVX|AVX2]
Thread count: 8 physical cores, 16 logical processors, using up to 1 threads

Optimize a model with 2 rows, 9 columns and 4 nonzeros
Model fingerprint: 0x0558f0c3
Coefficient statistics:
  Matrix range     [1e+00, 2e+00]
  Objective range  [1e+00, 8e+00]
  Bounds range     [0e+00, 0e+00]
  RHS range        [3e+00, 3e+00]
Presolve removed 2 rows and 9 columns
Presolve time: 0.00s
Presolve: All rows and columns removed
Iteration    Objective       Primal Inf.    Dual Inf.      Time
       0    1.0000000e+00   0.000000e+00   0.000000e+00      0s

Solved in 0 iterations and 0.00 seconds (0.00 work units)
Optimal objective  1.000000000e+00

Gurobi 11.0.0 (linux64) logging started Sat Apr  6 21:24:17 2024

Set parameter LogFile to value "gurobi.log"
Set parameter Method to value 0
Gurobi Optimizer version 11.0.0 build v11.0.0rc2 (linux64 - "Ubuntu 22.04.3 LTS")

CPU model: Intel(R) Core(TM) i7-10700 CPU @ 2.90GHz, instruction set [SSE2|AVX|AVX2]
Thread count: 8 physical cores, 16 logical processors, using up to 1 threads

Optimize a model with 2 rows, 9 columns and 4 nonzeros
Model fingerprint: 0x0558f0c3
Coefficient statistics:
  Matrix range     [1e+00, 2e+00]
  Objective range  [1e+00, 8e+00]
  Bounds range     [0e+00, 0e+00]
  RHS range        [3e+00, 3e+00]
Presolve removed 2 rows and 9 columns
Presolve time: 0.00s
Presolve: All rows and columns removed
Iteration    Objective       Primal Inf.    Dual Inf.      Time
       0    1.0000000e+00   0.000000e+00   0.000000e+00      0s

Solved in 0 iterations and 0.00 seconds (0.00 work units)
Optimal objective  1.000000000e+00
